c File:  johnson8-2-4.clq
c
c Source: Panos Pardalos pardalos@math.ufl.edu
c
c Reference: Johnson graph: johnsona-b-c is generated by
c            binary vectors of length a and weight b, with
c            two vertices adjacent if the hamming distance
c            between them is at least d.
c
p edge 11 21
e 4 3
e 5 2
e 6 1
e 7 3
e 7 5
e 7 6
e 8 2
e 8 4
e 8 6
e 9 1
e 9 4
e 9 5
e 10 1
e 10 2
e 10 3
e 11 3
e 11 5
e 11 6
e 11 8
e 11 9
e 11 10
